s td 22 7 30
b 1 1 16
b 2 5 9 11
b 3 14 17
b 4 7 24 29
b 5 12 30
b 6 2 4 15
b 7 7 20 24
b 8 8 13 16
b 9 13 16 22
b 10 11 12 20 24
b 11 11 13 22 28
b 12 3 4 11 12 21 27 28
b 13 3 5 11 12 21
b 14 3 4 11 12 15 27 28
b 15 3 11 12 15 26 27 28
b 16 10 15 26 27
b 17 3 11 13 15 26 28
b 18 3 11 12 15 24 27
b 19 3 4 17 28
b 20 6 19
b 21 18 23
b 22 25
1 9
1 20
1 21
1 22
2 13
3 19
4 7
5 12
6 14
7 10
8 9
9 11
10 18
11 17
12 13
12 14
12 19
14 15
14 18
15 16
15 17
